NAME : tsp25_3.180.tour
COMMENT : Length = 180
COMMENT : Found by LKH [Keld Helsgaun]
TYPE : TOUR
DIMENSION : 25
TOUR_SECTION
1
2
19
17
8
20
4
7
10
16
3
24
5
25
15
22
6
14
18
13
12
21
9
11
23
-1
EOF
